(set-logic LIA)

(declare-const y Int)
(declare-const y! Int)
(declare-const x Int)
(declare-const x! Int)
(declare-const tmp Int)
(declare-const tmp! Int)
(declare-const i Int)
(declare-const i! Int)

(declare-const y_0 Int)
(declare-const x_0 Int)
(declare-const i_35 Int)
(declare-const i_30 Int)
(declare-const i_25 Int)

(define-fun inv-f((i Int)(tmp Int)(x Int)(y Int)) Bool
